32 32
27
3 3   10 29
3 4   3 0 
3 5   25 27
3 6   19 14
3 7   13 25
3 8   16 0 
3 9   0 0 
3 10  22 0 
3 11  10 18
3 12  19 20
3 13  3 4 
3 14  19 0 
3 15  3 17
3 18  10 0 
3 22  22 10
3 23  0 9 
3 24  16 8 
3 25  13 0 
3 27  25 0 
4 3   6 0 
4 4   28 6 
4 5   28 20
4 6   28 0 
4 7   28 25
4 10  28 10
4 11  6 21
4 18  6 3 
